c 2 __UCLIBC_HAS_STDIO_BUFSIZ_512__
c 1 __UCLIBC_HAS_RPC__
c 8 __UCLIBC_HAS_STDIO_BUFSIZ_1024__
c 4 __UCLIBC_HAS_STDIO_BUFSIZ_NONE__
c 9 __UCLIBC_HAS_STDIO_BUFSIZ_4096__
c 5 __UCLIBC_HAS_STDIO_BUFSIZ_256__
c 6 __UCLIBC_HAS_FULL_RPC__
c 7 __UCLIBC_HAS_STDIO_BUFSIZ_8192__
c 3 __UCLIBC_HAS_STDIO_BUFSIZ_2048__
p cnf 9 1
2 3 4 -6 5 -1 7 8 9 1
